
Gurobi 9.0.1 (linux64, C++) logging started Wed Mar 18 01:20:41 2020

Academic license - for non-commercial use only
Gurobi Optimizer version 9.0.1 build v9.0.1rc0 (linux64)
Optimize a model with 13 rows, 21 columns and 31 nonzeros
Model fingerprint: 0xae2f44be
Variable types: 0 continuous, 21 integer (7 binary)
Coefficient statistics:
  Matrix range     [1e+00, 1e+01]
  Objective range  [1e+00, 4e+01]
  Bounds range     [1e+00, 1e+00]
  RHS range        [3e+00, 8e+00]
Found heuristic solution: objective 278.0000000
Presolve removed 6 rows and 10 columns
Presolve time: 0.00s
Presolved: 7 rows, 11 columns, 17 nonzeros
Variable types: 0 continuous, 11 integer (4 binary)

Root relaxation: objective 2.042000e+02, 7 iterations, 0.00 seconds

    Nodes    |    Current Node    |     Objective Bounds      |     Work
 Expl Unexpl |  Obj  Depth IntInf | Incumbent    BestBd   Gap | It/Node Time

     0     0  204.20000    0    1  278.00000  204.20000  26.5%     -    0s
H    0     0                     216.0000000  204.20000  5.46%     -    0s
H    0     0                     212.0000000  204.20000  3.68%     -    0s
     0     0     cutoff    0       212.00000  212.00000  0.00%     -    0s

Cutting planes:
  Gomory: 1

Explored 1 nodes (7 simplex iterations) in 0.00 seconds
Thread count was 4 (of 4 available processors)

Solution count 3: 212 216 278 

Optimal solution found (tolerance 1.00e-04)
Best objective 2.120000000000e+02, best bound 2.120000000000e+02, gap 0.0000%

Gurobi 9.0.1 (linux64, C++) logging started Wed Mar 18 01:21:20 2020

Academic license - for non-commercial use only
Gurobi Optimizer version 9.0.1 build v9.0.1rc0 (linux64)
Optimize a model with 13 rows, 21 columns and 31 nonzeros
Model fingerprint: 0x25168b94
Variable types: 0 continuous, 21 integer (7 binary)
Coefficient statistics:
  Matrix range     [1e+00, 1e+04]
  Objective range  [1e+00, 4e+01]
  Bounds range     [1e+00, 1e+00]
  RHS range        [3e+00, 8e+00]
Found heuristic solution: objective 278.0000000
Presolve removed 4 rows and 7 columns
Presolve time: 0.00s
Presolved: 9 rows, 14 columns, 22 nonzeros
Variable types: 0 continuous, 14 integer (5 binary)

Root relaxation: objective 1.570511e+02, 8 iterations, 0.00 seconds

    Nodes    |    Current Node    |     Objective Bounds      |     Work
 Expl Unexpl |  Obj  Depth IntInf | Incumbent    BestBd   Gap | It/Node Time

     0     0  157.05110    0    2  278.00000  157.05110  43.5%     -    0s
H    0     0                     210.0000000  157.05110  25.2%     -    0s
H    0     0                     195.0000000  157.05110  19.5%     -    0s
H    0     0                     185.0000000  157.05110  15.1%     -    0s
     0     0  176.00000    0    1  185.00000  176.00000  4.86%     -    0s

Cutting planes:
  Implied bound: 2
  Flow cover: 1
  Relax-and-lift: 1

Explored 1 nodes (11 simplex iterations) in 0.01 seconds
Thread count was 4 (of 4 available processors)

Solution count 4: 185 195 210 278 

Optimal solution found (tolerance 1.00e-04)
Best objective 1.850000000000e+02, best bound 1.850000000000e+02, gap 0.0000%

Gurobi 9.0.1 (linux64, C++) logging started Wed Mar 18 01:21:29 2020

Academic license - for non-commercial use only
Gurobi Optimizer version 9.0.1 build v9.0.1rc0 (linux64)
Optimize a model with 13 rows, 21 columns and 31 nonzeros
Model fingerprint: 0xae2f44be
Variable types: 0 continuous, 21 integer (7 binary)
Coefficient statistics:
  Matrix range     [1e+00, 1e+01]
  Objective range  [1e+00, 4e+01]
  Bounds range     [1e+00, 1e+00]
  RHS range        [3e+00, 8e+00]
Found heuristic solution: objective 278.0000000
Presolve removed 6 rows and 10 columns
Presolve time: 0.00s
Presolved: 7 rows, 11 columns, 17 nonzeros
Variable types: 0 continuous, 11 integer (4 binary)

Root relaxation: objective 2.042000e+02, 7 iterations, 0.00 seconds

    Nodes    |    Current Node    |     Objective Bounds      |     Work
 Expl Unexpl |  Obj  Depth IntInf | Incumbent    BestBd   Gap | It/Node Time

     0     0  204.20000    0    1  278.00000  204.20000  26.5%     -    0s
H    0     0                     216.0000000  204.20000  5.46%     -    0s
H    0     0                     212.0000000  204.20000  3.68%     -    0s
     0     0     cutoff    0       212.00000  212.00000  0.00%     -    0s

Cutting planes:
  Gomory: 1

Explored 1 nodes (7 simplex iterations) in 0.00 seconds
Thread count was 4 (of 4 available processors)

Solution count 3: 212 216 278 

Optimal solution found (tolerance 1.00e-04)
Best objective 2.120000000000e+02, best bound 2.120000000000e+02, gap 0.0000%
